db/data/194607390206921913527723205991539827112.z3.out
-------------------
2500.028630837
